model.lp
Maximize
  10
Subject To
 R0: - 66 + 75 + 76 = 0
 R1: - 6 - 72 = 0
 R2: - 30 + 68 - 69 = 0
 R3: - 34 - 43 - 68 + 69 + 70 + 72 = 0
 R4: 73 - 75 = 0
 R5: - 40 + 66 - 67 = 0
 R6: 0.8977 10 + 67 + 75 = 0
 R7: 13 - 49 - 71 = 0
 R8: - 13 + 49 + 71 = 0
 R9: - 29 + 65 = 0
 R10: 2.8328 10 - 39 - 44 - 47 - 48 + 52 + 54 + 62 - 64 - 65 = 0
 R11: - 28 - 59 = 0
 R12: - 8 + 9 - 55.703 10 - 32 + 38 + 59 - 60 - 62 + 63 - 72 = 0
 R13: 0.5191 10 - 15 + 39 + 60 - 61 - 62 + 64 = 0
 R14: 1.7867 10 + 12 - 46 - 60 + 61 = 0
 R15: - 27 + 51 = 0
 R16: 0.5 13 - 51 = 0
 R17: 18.225 10 - 37 - 40 - 42 - 48 + 50 - 74 = 0
 R18: - 18.225 10 + 37 + 40 + 42 + 48 - 50 + 74 = 0
 R19: 2 4 - 6 - 3.547 10 - 38 - 44 - 46 - 47 + 49 - 50 - 52 + 74 = 0
 R20: - 2 4 + 6 + 3.547 10 + 38 + 44 + 46 + 47 - 49 + 50 + 52 - 74 = 0
 R21: - 35 - 45 + 46 + 47 + 48 = 0
 R22: 14 - 26 = 0
 R23: - 14 + 44 = 0
 R24: - 2 + 42 + 43 = 0
 R25: 3 + 7 + 4 9 - 2 13 + 14 + 16 - 25 + 2 36 - 2 49 + 65 + 2 68 - 69
   + 2 74 = 0
 R26: - 3 + 2 4 - 7 - 8 - 3 9 - 41.025 10 - 12 + 2 13 - 14 - 16 - 2 36 - 37
   - 38 - 44 - 45 - 46 + 3 49 - 53 - 57 - 60 - 2 62 + 64 - 65 - 2 68 + 69
   - 2 74 = 0
 R27: - 24 + 41 = 0
 R28: 8 - 9 + 55.703 10 + 12 - 13 - 15 + 32 + 35 - 41 + 45 + 57 + 60 + 62
   = 0
 R29: - 43 + 45 = 0
 R30: - 23 + 39 = 0
 R31: 0.205 10 + 37 - 39 + 55 = 0
 R32: 0.129 10 - 31 + 38 + 73 - 75 - 76 - 77 = 0
 R33: - 22 + 36 = 0
 R34: 34 + 35 - 36 - 70 = 0
 R35: - 21 + 33 = 0
 R36: - 33 - 54 = 0
 R37: 31 + 32 - 53 = 0
 R38: 34 - 70 + 71 = 0
 R39: - 34 + 70 - 71 = 0
 R40: 0.0709 10 - 32 + 53 - 55 - 73 - 76 = 0
 R41: 16 - 20 = 0
 R42: - 4 - 16 = 0
 R43: 0.361 10 - 73 + 76 = 0
 R44: - 31 + 77 = 0
 R45: - 4 + 6 - 3.7478 10 - 12 - 45 + 52 + 54 - 63 + 72 = 0
 R46: 11 - 19 = 0
 R47: - 6 - 11 - 40 - 42 - 47 - 48 - 52 + 60 - 61 = 0
 R48: 2 - 12 = 0
 R49: 1 + 5 + 8 - 9 + 55.703 10 + 53 + 56 + 61 + 62 - 64 + 72 = 0
 R50: 5 - 62 = 0
 R51: 7 - 18 = 0
 R52: 6 - 7 + 1.0789 10 - 42 = 0
 R53: - 1 - 2 5 - 8 + 9 - 55.703 10 - 53 - 56 - 61 + 64 - 72 = 0
 R54: - 1 - 63 = 0
 R55: 4 + 3.7478 10 + 12 + 45 - 52 - 54 + 63 = 0
 R56: 3 - 17 = 0
 R57: 1 - 3 = 0
 R58: - 37 + 57 = 0
 R59: 40 - 57 = 0
 R60: 1.496 10 + 56 - 58 = 0
 R61: 15 + 58 = 0
 R62: - 38 - 56 = 0
Bounds
 -999999 <= 1 <= 999999
 -999999 <= 2 <= 999999
 -999999 <= 3 <= 999999
 -999999 <= 4 <= 999999
 -999999 <= 5 <= 999999
 6 <= 999999
 -999999 <= 7 <= 999999
 8 = 7.6
 -999999 <= 9 <= 999999
 10 <= 999999
 -999999 <= 11 <= 999999
 12 <= 999999
 13 <= 999999
 -999999 <= 14 <= 999999
 -999999 <= 15 <= 999999
 -999999 <= 16 <= 999999
 17 <= 999999
 18 <= 999999
 -999999 <= 19 <= 999999
 20 <= 999999
 21 <= 999999
 22 <= 999999
 -10 <= 23 <= 999999
 -999999 <= 24 <= 999999
 -999999 <= 25 <= 999999
 26 <= 999999
 -999999 <= 27 <= 999999
 -999999 <= 28 <= 999999
 29 <= 999999
 30 <= 999999
 -999999 <= 31 <= 999999
 32 <= 999999
 -999999 <= 33 <= 999999
 34 <= 999999
 -999999 <= 35 <= 999999
 36 <= 999999
 -999999 <= 37 <= 999999
 -999999 <= 38 <= 999999
 39 <= 999999
 40 <= 999999
 -999999 <= 41 <= 999999
 -999999 <= 42 <= 999999
 43 <= 999999
 -999999 <= 44 <= 999999
 45 <= 999999
 -999999 <= 46 <= 999999
 47 <= 999999
 48 <= 999999
 49 <= 999999
 50 <= 999999
 -999999 <= 51 <= 999999
 52 <= 999999
 53 <= 999999
 54 <= 999999
 -999999 <= 55 <= 999999
 -999999 <= 56 <= 999999
 57 <= 999999
 -999999 <= 58 <= 999999
 -999999 <= 59 <= 999999
 60 <= 999999
 61 <= 999999
 62 <= 999999
 -999999 <= 63 <= 999999
 64 <= 999999
 -999999 <= 65 <= 999999
 -999999 <= 66 <= 999999
 -999999 <= 67 <= 999999
 68 <= 999999
 69 <= 999999
 70 <= 999999
 -999999 <= 71 <= 999999
 -999999 <= 72 <= 999999
 -999999 <= 73 <= 999999
 74 <= 999999
 -999999 <= 75 <= 999999
 -999999 <= 76 <= 999999
 -999999 <= 77 <= 999999
End
