model.mps
NAME (null)
* Max problem is converted into Min one
ROWS
 N  OBJ
 E  R0      
 E  R1      
 E  R2      
 E  R3      
 E  R4      
 E  R5      
 E  R6      
 E  R7      
 E  R8      
 E  R9      
 E  R10     
 E  R11     
 E  R12     
 E  R13     
 E  R14     
 E  R15     
 E  R16     
 E  R17     
 E  R18     
 E  R19     
 E  R20     
 E  R21     
 E  R22     
 E  R23     
 E  R24     
 E  R25     
 E  R26     
 E  R27     
 E  R28     
 E  R29     
 E  R30     
 E  R31     
 E  R32     
 E  R33     
 E  R34     
 E  R35     
 E  R36     
 E  R37     
 E  R38     
 E  R39     
 E  R40     
 E  R41     
 E  R42     
 E  R43     
 E  R44     
 E  R45     
 E  R46     
 E  R47     
 E  R48     
 E  R49     
 E  R50     
 E  R51     
 E  R52     
 E  R53     
 E  R54     
 E  R55     
 E  R56     
 E  R57     
 E  R58     
 E  R59     
 E  R60     
 E  R61     
 E  R62     
COLUMNS
    1         R49       1
    1         R53       -1
    1         R54       -1
    1         R57       1
    2         R24       -1
    2         R48       1
    3         R25       1
    3         R26       -1
    3         R56       1
    3         R57       -1
    4         R19       2
    4         R20       -2
    4         R26       2
    4         R42       -1
    4         R45       -1
    4         R55       1
    5         R49       1
    5         R50       1
    5         R53       -2
    6         R1        -1
    6         R19       -1
    6         R20       1
    6         R45       1
    6         R47       -1
    6         R52       1
    7         R25       1
    7         R26       -1
    7         R51       1
    7         R52       -1
    8         R12       -1
    8         R26       -1
    8         R28       1
    8         R49       1
    8         R53       -1
    9         R12       1
    9         R25       4
    9         R26       -3
    9         R28       -1
    9         R49       -1
    9         R53       1
    10        OBJ       -1
    10        R6        0.8977
    10        R10       2.8328
    10        R12       -55.703
    10        R13       0.5191
    10        R14       1.7867
    10        R17       18.225
    10        R18       -18.225
    10        R19       -3.547
    10        R20       3.547
    10        R26       -41.025
    10        R28       55.703
    10        R31       0.205
    10        R32       0.129
    10        R40       0.0709
    10        R43       0.361
    10        R45       -3.7478
    10        R49       55.703
    10        R52       1.0789
    10        R53       -55.703
    10        R55       3.7478
    10        R60       1.496
    11        R46       1
    11        R47       -1
    12        R14       1
    12        R26       -1
    12        R28       1
    12        R45       -1
    12        R48       -1
    12        R55       1
    13        R7        1
    13        R8        -1
    13        R16       0.5
    13        R25       -2
    13        R26       2
    13        R28       -1
    14        R22       1
    14        R23       -1
    14        R25       1
    14        R26       -1
    15        R13       -1
    15        R28       -1
    15        R61       1
    16        R25       1
    16        R26       -1
    16        R41       1
    16        R42       -1
    17        R56       -1
    18        R51       -1
    19        R46       -1
    20        R41       -1
    21        R35       -1
    22        R33       -1
    23        R30       -1
    24        R27       -1
    25        R25       -1
    26        R22       -1
    27        R15       -1
    28        R11       -1
    29        R9        -1
    30        R2        -1
    31        R32       -1
    31        R37       1
    31        R44       -1
    32        R12       -1
    32        R28       1
    32        R37       1
    32        R40       -1
    33        R35       1
    33        R36       -1
    34        R3        -1
    34        R34       1
    34        R38       1
    34        R39       -1
    35        R21       -1
    35        R28       1
    35        R34       1
    36        R25       2
    36        R26       -2
    36        R33       1
    36        R34       -1
    37        R17       -1
    37        R18       1
    37        R26       -1
    37        R31       1
    37        R58       -1
    38        R12       1
    38        R19       -1
    38        R20       1
    38        R26       -1
    38        R32       1
    38        R62       -1
    39        R10       -1
    39        R13       1
    39        R30       1
    39        R31       -1
    40        R5        -1
    40        R17       -1
    40        R18       1
    40        R47       -1
    40        R59       1
    41        R27       1
    41        R28       -1
    42        R17       -1
    42        R18       1
    42        R24       1
    42        R47       -1
    42        R52       -1
    43        R3        -1
    43        R24       1
    43        R29       -1
    44        R10       -1
    44        R19       -1
    44        R20       1
    44        R23       1
    44        R26       -1
    45        R21       -1
    45        R26       -1
    45        R28       1
    45        R29       1
    45        R45       -1
    45        R55       1
    46        R14       -1
    46        R19       -1
    46        R20       1
    46        R21       1
    46        R26       -1
    47        R10       -1
    47        R19       -1
    47        R20       1
    47        R21       1
    47        R47       -1
    48        R10       -1
    48        R17       -1
    48        R18       1
    48        R21       1
    48        R47       -1
    49        R7        -1
    49        R8        1
    49        R19       1
    49        R20       -1
    49        R25       -2
    49        R26       3
    50        R17       1
    50        R18       -1
    50        R19       -1
    50        R20       1
    51        R15       1
    51        R16       -1
    52        R10       1
    52        R19       -1
    52        R20       1
    52        R45       1
    52        R47       -1
    52        R55       -1
    53        R26       -1
    53        R37       -1
    53        R40       1
    53        R49       1
    53        R53       -1
    54        R10       1
    54        R36       -1
    54        R45       1
    54        R55       -1
    55        R31       1
    55        R40       -1
    56        R49       1
    56        R53       -1
    56        R60       1
    56        R62       -1
    57        R26       -1
    57        R28       1
    57        R58       1
    57        R59       -1
    58        R60       -1
    58        R61       1
    59        R11       -1
    59        R12       1
    60        R12       -1
    60        R13       1
    60        R14       -1
    60        R26       -1
    60        R28       1
    60        R47       1
    61        R13       -1
    61        R14       1
    61        R47       -1
    61        R49       1
    61        R53       -1
    62        R10       1
    62        R12       -1
    62        R13       -1
    62        R26       -2
    62        R28       1
    62        R49       1
    62        R50       -1
    63        R12       1
    63        R45       -1
    63        R54       -1
    63        R55       1
    64        R10       -1
    64        R13       1
    64        R26       1
    64        R49       -1
    64        R53       1
    65        R9        1
    65        R10       -1
    65        R25       1
    65        R26       -1
    66        R0        -1
    66        R5        1
    67        R5        -1
    67        R6        1
    68        R2        1
    68        R3        -1
    68        R25       2
    68        R26       -2
    69        R2        -1
    69        R3        1
    69        R25       -1
    69        R26       1
    70        R3        1
    70        R34       -1
    70        R38       -1
    70        R39       1
    71        R7        -1
    71        R8        1
    71        R38       1
    71        R39       -1
    72        R1        -1
    72        R3        1
    72        R12       -1
    72        R45       1
    72        R49       1
    72        R53       -1
    73        R4        1
    73        R32       1
    73        R40       -1
    73        R43       -1
    74        R17       -1
    74        R18       1
    74        R19       1
    74        R20       -1
    74        R25       2
    74        R26       -2
    75        R0        1
    75        R4        -1
    75        R6        1
    75        R32       -1
    76        R0        1
    76        R32       -1
    76        R40       -1
    76        R43       1
    77        R32       -1
    77        R44       1
RHS
BOUNDS
 LO BND1      1         -999999
 UP BND1      1         999999
 LO BND1      2         -999999
 UP BND1      2         999999
 LO BND1      3         -999999
 UP BND1      3         999999
 LO BND1      4         -999999
 UP BND1      4         999999
 LO BND1      5         -999999
 UP BND1      5         999999
 UP BND1      6         999999
 LO BND1      7         -999999
 UP BND1      7         999999
 FX BND1      8         7.6
 LO BND1      9         -999999
 UP BND1      9         999999
 UP BND1      10        999999
 LO BND1      11        -999999
 UP BND1      11        999999
 UP BND1      12        999999
 UP BND1      13        999999
 LO BND1      14        -999999
 UP BND1      14        999999
 LO BND1      15        -999999
 UP BND1      15        999999
 LO BND1      16        -999999
 UP BND1      16        999999
 UP BND1      17        999999
 UP BND1      18        999999
 LO BND1      19        -999999
 UP BND1      19        999999
 UP BND1      20        999999
 UP BND1      21        999999
 UP BND1      22        999999
 LO BND1      23        -10
 UP BND1      23        999999
 LO BND1      24        -999999
 UP BND1      24        999999
 LO BND1      25        -999999
 UP BND1      25        999999
 UP BND1      26        999999
 LO BND1      27        -999999
 UP BND1      27        999999
 LO BND1      28        -999999
 UP BND1      28        999999
 UP BND1      29        999999
 UP BND1      30        999999
 LO BND1      31        -999999
 UP BND1      31        999999
 UP BND1      32        999999
 LO BND1      33        -999999
 UP BND1      33        999999
 UP BND1      34        999999
 LO BND1      35        -999999
 UP BND1      35        999999
 UP BND1      36        999999
 LO BND1      37        -999999
 UP BND1      37        999999
 LO BND1      38        -999999
 UP BND1      38        999999
 UP BND1      39        999999
 UP BND1      40        999999
 LO BND1      41        -999999
 UP BND1      41        999999
 LO BND1      42        -999999
 UP BND1      42        999999
 UP BND1      43        999999
 LO BND1      44        -999999
 UP BND1      44        999999
 UP BND1      45        999999
 LO BND1      46        -999999
 UP BND1      46        999999
 UP BND1      47        999999
 UP BND1      48        999999
 UP BND1      49        999999
 UP BND1      50        999999
 LO BND1      51        -999999
 UP BND1      51        999999
 UP BND1      52        999999
 UP BND1      53        999999
 UP BND1      54        999999
 LO BND1      55        -999999
 UP BND1      55        999999
 LO BND1      56        -999999
 UP BND1      56        999999
 UP BND1      57        999999
 LO BND1      58        -999999
 UP BND1      58        999999
 LO BND1      59        -999999
 UP BND1      59        999999
 UP BND1      60        999999
 UP BND1      61        999999
 UP BND1      62        999999
 LO BND1      63        -999999
 UP BND1      63        999999
 UP BND1      64        999999
 LO BND1      65        -999999
 UP BND1      65        999999
 LO BND1      66        -999999
 UP BND1      66        999999
 LO BND1      67        -999999
 UP BND1      67        999999
 UP BND1      68        999999
 UP BND1      69        999999
 UP BND1      70        999999
 LO BND1      71        -999999
 UP BND1      71        999999
 LO BND1      72        -999999
 UP BND1      72        999999
 LO BND1      73        -999999
 UP BND1      73        999999
 UP BND1      74        999999
 LO BND1      75        -999999
 UP BND1      75        999999
 LO BND1      76        -999999
 UP BND1      76        999999
 LO BND1      77        -999999
 UP BND1      77        999999
ENDATA
